Maximize
  0 x0 - 15 x1 + 0 x2 + 42 x3 - 12 x4 + 9 x5 + 0 x6 + 0 x7 + 22 x8 - 18 x9
   - 32 x10 + 23 x11 + 0 x12 - 2 x13 + 19 x14 - 6 x15 + 29 x16 + 0 x17
   - 34 x18 + 24 x19 + 13 x20 - 30 x21 + 0 x22 + 20 x23 - 5 x24 + 0 x25
   + 0 x26 + 0 x27 - 46 x28 + 0 x29 - 24 x30 + 45 x31 + 0 x32 + 14 x33
   + 37 x34 + 28 x35 + 0 x36 - x37 - 32 x38 + 18 x39 + 26 x40 + 0 x41
   - 45 x42 + 28 x43 - 47 x44 - 42 x45 + 0 x46 - 30 x47 - 15 x48 + 19 x49
   - 31 x50 + 0 x51 + 0 x52 + 0 x53 - 9 x54 - 6 x55 - 36 x56 + 33 x57
   + 28 x58 + 0 x59 - 3 x60 + 18 x61 - 40 x62 + 0 x63 - 18 x64 + x65
   - 29 x66 + 0 x67 + 41 x68 + 0 x69 + 0 x70 + 14 x71 + 43 x72 - 15 x73
   + 0 x74 + 0 x75 - 37 x76 - 7 x77 - 8 x78 + 0 x79 + [ - 35 x0 ^2
   + 56 x0 * x1 - 26 x0 * x7 + 12 x0 * x8 + 76 x0 * x11 - 34 x0 * x12
   + 86 x0 * x13 - 80 x0 * x14 + 50 x0 * x15 + 10 x0 * x16 + 72 x0 * x17
   + 28 x0 * x19 - 10 x0 * x20 + 22 x0 * x21 + 98 x0 * x22 + 36 x0 * x23
   + 22 x0 * x24 - 2 x0 * x25 + 56 x0 * x26 + 72 x0 * x27 + 44 x0 * x28
   + 32 x0 * x29 + 48 x0 * x30 + 98 x0 * x33 + 36 x0 * x34 - 62 x0 * x35
   - 88 x0 * x37 - 98 x0 * x38 - 46 x0 * x41 + 80 x0 * x42 + 80 x0 * x45
   + 52 x0 * x46 - 90 x0 * x48 - 36 x0 * x49 + 96 x0 * x50 - 18 x0 * x51
   + 84 x0 * x52 + 2 x0 * x53 + 42 x0 * x54 - 98 x0 * x55 + 78 x0 * x56
   + 34 x0 * x57 + 54 x0 * x58 + 16 x0 * x59 + 44 x0 * x60 + 62 x0 * x61
   + 84 x0 * x62 + 50 x0 * x64 - 80 x0 * x66 + 26 x0 * x67 + 48 x0 * x68
   - 62 x0 * x69 + 64 x0 * x70 + 8 x0 * x71 - 46 x0 * x72 - 20 x0 * x74
   - 68 x0 * x75 - 34 x0 * x77 - 8 x0 * x79 - 44 x1 ^2 + 12 x1 * x2
   - 84 x1 * x3 + 78 x1 * x4 + 16 x1 * x5 + 16 x1 * x6 + 6 x1 * x7
   - 96 x1 * x8 + 34 x1 * x9 + 58 x1 * x10 + 76 x1 * x11 - 80 x1 * x12
   - 26 x1 * x13 - 84 x1 * x14 - 4 x1 * x15 - 76 x1 * x16 - 72 x1 * x17
   + 42 x1 * x18 + 56 x1 * x19 + 96 x1 * x20 + 88 x1 * x21 - 86 x1 * x22
   + 56 x1 * x23 - 94 x1 * x25 - 2 x1 * x26 + 78 x1 * x27 - 54 x1 * x28
   - 98 x1 * x29 - 58 x1 * x30 - 54 x1 * x31 + 42 x1 * x32 - 34 x1 * x33
   + 90 x1 * x34 + 58 x1 * x35 + 82 x1 * x37 + 64 x1 * x38 + 34 x1 * x40
   - 62 x1 * x41 + 50 x1 * x42 - 54 x1 * x43 + 48 x1 * x45 - 16 x1 * x48
   + 92 x1 * x50 + 32 x1 * x51 - 92 x1 * x53 - 40 x1 * x54 - 86 x1 * x56
   - 24 x1 * x57 + 10 x1 * x58 + 24 x1 * x59 + 38 x1 * x60 + 10 x1 * x61
   + 66 x1 * x62 + 76 x1 * x63 + 68 x1 * x64 - 12 x1 * x65 - 74 x1 * x66
   - 34 x1 * x67 - 66 x1 * x68 + 46 x1 * x69 - 66 x1 * x70 + 76 x1 * x76
   - 14 x1 * x79 + 98 x2 * x4 - 38 x2 * x5 + 88 x2 * x6 - 62 x2 * x7
   + 84 x2 * x9 - 30 x2 * x10 - 48 x2 * x11 - 2 x2 * x12 - 74 x2 * x13
   + 60 x2 * x14 - 62 x2 * x15 + 62 x2 * x17 + 76 x2 * x19 + 42 x2 * x20
   + 58 x2 * x22 + 8 x2 * x24 - 14 x2 * x25 - 88 x2 * x26 - 54 x2 * x27
   + 20 x2 * x28 - 26 x2 * x29 + 22 x2 * x30 + 82 x2 * x31 - 28 x2 * x32
   + 86 x2 * x33 - 64 x2 * x34 + 86 x2 * x37 + 86 x2 * x38 - 86 x2 * x39
   + 26 x2 * x40 - 76 x2 * x43 + 64 x2 * x44 + 70 x2 * x46 - 6 x2 * x47
   - 56 x2 * x48 + 34 x2 * x51 - 10 x2 * x52 + 60 x2 * x53 - 66 x2 * x55
   - 46 x2 * x56 - 10 x2 * x57 + 6 x2 * x58 + 90 x2 * x59 - 40 x2 * x60
   + 26 x2 * x61 - 30 x2 * x63 + 36 x2 * x66 + 64 x2 * x67 - 42 x2 * x68
   + 54 x2 * x70 - 44 x2 * x72 + 26 x2 * x73 + 60 x2 * x74 - 44 x2 * x76
   + 64 x2 * x77 + 8 x2 * x78 - 96 x2 * x79 - 24 x3 * x5 - 96 x3 * x7
   + 44 x3 * x8 - 14 x3 * x11 - 52 x3 * x13 + 2 x3 * x14 - 66 x3 * x15
   - 56 x3 * x16 - 40 x3 * x17 + 68 x3 * x18 - 52 x3 * x19 - 4 x3 * x20
   - 18 x3 * x21 + 32 x3 * x22 - 78 x3 * x23 + 18 x3 * x24 - 28 x3 * x25
   - 52 x3 * x26 - 46 x3 * x27 + 44 x3 * x29 + 8 x3 * x31 - 26 x3 * x32
   + 62 x3 * x33 + 66 x3 * x35 - 30 x3 * x37 + 44 x3 * x39 + 68 x3 * x42
   + 30 x3 * x43 + 90 x3 * x44 + 94 x3 * x45 + 8 x3 * x46 - 74 x3 * x47
   + 42 x3 * x48 - 20 x3 * x49 - 70 x3 * x50 + 80 x3 * x52 + 32 x3 * x54
   + 50 x3 * x55 - 50 x3 * x56 + 86 x3 * x59 - 20 x3 * x62 + 50 x3 * x63
   + 74 x3 * x64 + 44 x3 * x65 + 14 x3 * x66 - 52 x3 * x67 - 2 x3 * x68
   + 56 x3 * x69 + 20 x3 * x71 - 80 x3 * x72 - 4 x3 * x73 - 54 x3 * x74
   - 32 x3 * x75 - 82 x3 * x76 + 68 x3 * x78 + 10 x3 * x79 + 16 x4 * x6
   - 10 x4 * x8 + 50 x4 * x11 + 54 x4 * x13 - 86 x4 * x14 - 68 x4 * x15
   - 70 x4 * x16 + 22 x4 * x17 + 82 x4 * x18 + 98 x4 * x20 + 2 x4 * x24
   + 26 x4 * x25 + 74 x4 * x26 - 56 x4 * x27 + 74 x4 * x28 - 40 x4 * x30
   - 22 x4 * x31 - 22 x4 * x32 - 24 x4 * x33 - 28 x4 * x36 + 8 x4 * x37
   - 58 x4 * x38 + 76 x4 * x39 + 40 x4 * x40 + 20 x4 * x41 + 30 x4 * x42
   - 78 x4 * x45 - 4 x4 * x46 - 80 x4 * x47 - 62 x4 * x48 + 70 x4 * x49
   - 54 x4 * x50 - 96 x4 * x51 - 10 x4 * x52 + 12 x4 * x53 - 46 x4 * x54
   + 54 x4 * x56 - 62 x4 * x57 + 46 x4 * x58 + 50 x4 * x60 + 48 x4 * x61
   - 78 x4 * x62 - 76 x4 * x63 + 66 x4 * x64 - 8 x4 * x66 - 32 x4 * x68
   - 24 x4 * x69 + 36 x4 * x71 + 48 x4 * x72 + 32 x4 * x73 - 74 x4 * x74
   - 24 x4 * x76 - 94 x4 * x77 + 82 x4 * x78 + 48 x4 * x79 - 35 x5 ^2
   - 60 x5 * x6 - 96 x5 * x7 + 48 x5 * x8 + 82 x5 * x9 + 52 x5 * x11
   - 80 x5 * x12 - 86 x5 * x15 + 40 x5 * x16 + 26 x5 * x17 + 40 x5 * x18
   - 58 x5 * x19 + 86 x5 * x20 - 48 x5 * x21 + 72 x5 * x22 - 20 x5 * x24
   - 26 x5 * x26 + 98 x5 * x28 - 78 x5 * x29 + 60 x5 * x30 - 98 x5 * x31
   - 22 x5 * x33 - 74 x5 * x34 - 46 x5 * x35 - 84 x5 * x36 + 48 x5 * x37
   - 26 x5 * x38 - 10 x5 * x41 - 98 x5 * x42 - 74 x5 * x45 + 74 x5 * x47
   - 20 x5 * x48 + 8 x5 * x49 - 58 x5 * x50 + 84 x5 * x51 - 86 x5 * x53
   - 56 x5 * x54 + 74 x5 * x56 - 78 x5 * x57 - 52 x5 * x58 + 72 x5 * x59
   - 84 x5 * x60 + 42 x5 * x61 + 8 x5 * x64 - 66 x5 * x65 - 24 x5 * x66
   - 18 x5 * x67 + 16 x5 * x68 - 90 x5 * x69 - 38 x5 * x71 - 52 x5 * x72
   - 80 x5 * x73 - 44 x5 * x74 - 32 x5 * x76 + 66 x5 * x78 + 98 x5 * x79
   + 18 x6 ^2 - 84 x6 * x7 - 26 x6 * x8 - 4 x6 * x10 - 56 x6 * x11
   + 42 x6 * x12 - 76 x6 * x13 - 80 x6 * x14 + 52 x6 * x15 + 50 x6 * x16
   + 90 x6 * x17 + 78 x6 * x18 - 50 x6 * x21 + 78 x6 * x22 + 92 x6 * x23
   - 88 x6 * x24 - 38 x6 * x25 + 84 x6 * x26 + 58 x6 * x27 - 90 x6 * x29
   - 82 x6 * x30 + 52 x6 * x31 + 2 x6 * x32 + 18 x6 * x34 + 78 x6 * x35
   + 46 x6 * x37 + 46 x6 * x38 - 2 x6 * x39 - 8 x6 * x40 + 4 x6 * x41
   - 82 x6 * x42 - 68 x6 * x43 - 38 x6 * x44 - 56 x6 * x45 + 38 x6 * x46
   - 46 x6 * x47 - 78 x6 * x48 + 76 x6 * x49 + 60 x6 * x50 + 26 x6 * x53
   - 20 x6 * x54 - 84 x6 * x55 - 44 x6 * x57 - 32 x6 * x58 + 94 x6 * x59
   + 72 x6 * x60 - 54 x6 * x61 + 6 x6 * x64 - 14 x6 * x65 - 8 x6 * x66
   + 68 x6 * x67 - 68 x6 * x68 - 26 x6 * x69 - 20 x6 * x70 + 70 x6 * x71
   - 98 x6 * x75 - 68 x6 * x76 - 50 x6 * x78 + 60 x6 * x79 + 16 x7 ^2
   + 18 x7 * x9 - 66 x7 * x11 + 94 x7 * x12 + 72 x7 * x15 + 50 x7 * x18
   + 40 x7 * x20 + 30 x7 * x21 - 68 x7 * x22 + 6 x7 * x23 + 64 x7 * x26
   - 20 x7 * x27 - 92 x7 * x28 + 92 x7 * x29 - 32 x7 * x32 - 74 x7 * x33
   - 4 x7 * x34 + 58 x7 * x36 - 86 x7 * x37 - 16 x7 * x39 + 40 x7 * x40
   - 74 x7 * x45 + 80 x7 * x46 - 78 x7 * x48 - 26 x7 * x50 + 50 x7 * x52
   + 2 x7 * x53 - 36 x7 * x56 - 66 x7 * x57 - 70 x7 * x58 + 14 x7 * x61
   - 80 x7 * x62 - 14 x7 * x64 - 62 x7 * x66 + 42 x7 * x67 + 68 x7 * x69
   + 34 x7 * x70 - 48 x7 * x72 - 80 x7 * x73 + 98 x7 * x74 - 80 x7 * x75
   - 58 x7 * x76 - 44 x7 * x77 + 86 x7 * x78 + 25 x8 ^2 - 20 x8 * x9
   + 14 x8 * x10 - 66 x8 * x11 - 56 x8 * x16 - 40 x8 * x17 + 40 x8 * x18
   - 20 x8 * x19 + 34 x8 * x20 + 84 x8 * x21 - 6 x8 * x22 + 36 x8 * x24
   + 20 x8 * x25 + 18 x8 * x26 + 46 x8 * x29 - 92 x8 * x32 + 24 x8 * x34
   - 94 x8 * x35 + 68 x8 * x36 - 84 x8 * x37 - 76 x8 * x38 + 98 x8 * x40
   - 22 x8 * x42 + 42 x8 * x43 + 4 x8 * x46 + 14 x8 * x47 + 50 x8 * x48
   - 16 x8 * x49 + 20 x8 * x50 + 46 x8 * x51 - 96 x8 * x52 - 26 x8 * x54
   + 72 x8 * x55 + 54 x8 * x58 + 62 x8 * x59 + 82 x8 * x60 + 16 x8 * x61
   + 2 x8 * x62 - 34 x8 * x63 + 64 x8 * x64 - 64 x8 * x67 - 38 x8 * x70
   - 76 x8 * x71 - 36 x8 * x72 - 84 x8 * x73 + 8 x8 * x74 - 86 x8 * x75
   + 42 x8 * x76 + 40 x8 * x77 + 94 x8 * x79 - 11 x9 ^2 + 60 x9 * x10
   - 40 x9 * x11 + 84 x9 * x13 + 44 x9 * x14 - 16 x9 * x15 + 16 x9 * x16
   + 90 x9 * x17 + 74 x9 * x18 - 4 x9 * x20 + 92 x9 * x21 + 80 x9 * x22
   + 12 x9 * x24 + 96 x9 * x25 + 64 x9 * x26 + 52 x9 * x27 - 40 x9 * x28
   - 28 x9 * x30 + 46 x9 * x31 + 30 x9 * x32 + 6 x9 * x33 + 8 x9 * x34
   + 20 x9 * x35 + 16 x9 * x36 - 82 x9 * x37 - 38 x9 * x38 + 80 x9 * x39
   - 94 x9 * x40 - 62 x9 * x41 - 12 x9 * x43 - 48 x9 * x45 - 54 x9 * x46
   + 38 x9 * x47 + 66 x9 * x48 - 12 x9 * x49 - 32 x9 * x50 + 34 x9 * x52
   + 16 x9 * x53 + 72 x9 * x55 - 74 x9 * x56 - 34 x9 * x57 + 80 x9 * x59
   - 48 x9 * x60 - 4 x9 * x61 + 2 x9 * x62 + 94 x9 * x64 + 68 x9 * x65
   - 26 x9 * x66 - 60 x9 * x68 + 48 x9 * x71 + 38 x9 * x72 + 4 x9 * x73
   - 64 x9 * x74 + 54 x9 * x75 - 80 x9 * x76 - 20 x9 * x77 - 94 x9 * x78
   + 56 x9 * x79 - 26 x10 * x12 - 32 x10 * x13 + 18 x10 * x15
   + 68 x10 * x16 - 76 x10 * x17 + 78 x10 * x18 - 50 x10 * x19
   + 24 x10 * x22 + 28 x10 * x23 + 6 x10 * x24 + 38 x10 * x25
   - 10 x10 * x26 + 84 x10 * x27 - 90 x10 * x29 - 14 x10 * x32
   + 16 x10 * x33 + 20 x10 * x34 + 76 x10 * x35 + 92 x10 * x36
   + 60 x10 * x37 - 14 x10 * x38 - 90 x10 * x39 - 36 x10 * x41
   - 70 x10 * x42 - 86 x10 * x43 - 6 x10 * x44 + 26 x10 * x45 + 2 x10 * x46
   - 82 x10 * x48 - 90 x10 * x49 - 8 x10 * x50 + 16 x10 * x51
   + 90 x10 * x53 - 28 x10 * x55 - 48 x10 * x56 + 76 x10 * x57
   - 68 x10 * x58 - 90 x10 * x59 + 32 x10 * x60 + 94 x10 * x62
   + 68 x10 * x63 + 64 x10 * x65 - 96 x10 * x66 + 10 x10 * x67
   - 26 x10 * x69 + 16 x10 * x70 + 22 x10 * x71 - 10 x10 * x72
   + 20 x10 * x74 - 76 x10 * x75 + 50 x10 * x77 - 84 x10 * x79 - 10 x11 ^2
   + 28 x11 * x12 + 10 x11 * x13 - 84 x11 * x14 + 92 x11 * x15
   + 16 x11 * x16 + 92 x11 * x17 - 88 x11 * x18 - 10 x11 * x23
   + 38 x11 * x24 - 88 x11 * x25 + 58 x11 * x26 + 88 x11 * x28
   + 16 x11 * x30 + 10 x11 * x31 + 60 x11 * x32 - 14 x11 * x33
   + 56 x11 * x34 + 6 x11 * x36 - 44 x11 * x37 + 4 x11 * x38 + 80 x11 * x39
   + 72 x11 * x40 + 92 x11 * x41 + 2 x11 * x42 - 20 x11 * x44
   + 38 x11 * x45 - 12 x11 * x47 - 36 x11 * x52 - 28 x11 * x54
   + 44 x11 * x55 - 58 x11 * x56 + 60 x11 * x57 - 56 x11 * x58
   + 56 x11 * x59 + 72 x11 * x60 + 50 x11 * x61 - 78 x11 * x62
   + 16 x11 * x63 - 10 x11 * x64 - 78 x11 * x65 + 92 x11 * x66
   - 86 x11 * x67 + 74 x11 * x71 - 28 x11 * x72 + 8 x11 * x73
   + 28 x11 * x74 - 38 x11 * x75 + 20 x11 * x76 - 12 x11 * x77
   + 98 x11 * x78 - 22 x12 * x13 + 24 x12 * x14 - 66 x12 * x17
   - 74 x12 * x18 - 6 x12 * x19 + 48 x12 * x20 - 68 x12 * x21
   - 52 x12 * x23 + 64 x12 * x24 + 22 x12 * x25 - 82 x12 * x26
   - 20 x12 * x27 + 34 x12 * x29 - 16 x12 * x30 - 6 x12 * x31
   - 34 x12 * x32 + 60 x12 * x34 + 28 x12 * x35 + 46 x12 * x36
   + 84 x12 * x37 - 50 x12 * x38 + 26 x12 * x39 + 60 x12 * x40
   - 82 x12 * x41 + 22 x12 * x45 - 4 x12 * x47 + 76 x12 * x50
   + 84 x12 * x51 - 70 x12 * x54 + 12 x12 * x55 + 26 x12 * x56
   - 8 x12 * x57 + 20 x12 * x58 - 64 x12 * x59 - 72 x12 * x60 - 8 x12 * x61
   - 92 x12 * x62 + 64 x12 * x63 + 86 x12 * x64 + 38 x12 * x65
   + 14 x12 * x67 - 26 x12 * x68 - 54 x12 * x71 - 60 x12 * x72
   + 62 x12 * x73 + 40 x12 * x74 - 12 x12 * x75 + 48 x12 * x77
   + 88 x12 * x78 + 44 x12 * x79 + 47 x13 ^2 - 38 x13 * x14 + 40 x13 * x17
   + 10 x13 * x18 + 58 x13 * x19 + 84 x13 * x20 - 12 x13 * x21
   + 16 x13 * x22 + 6 x13 * x23 + 14 x13 * x24 - 52 x13 * x25
   + 42 x13 * x26 + 52 x13 * x27 + 52 x13 * x28 - 56 x13 * x29
   - 52 x13 * x30 - 8 x13 * x31 - 16 x13 * x32 + 16 x13 * x33
   + 60 x13 * x34 - 44 x13 * x36 + 88 x13 * x37 + 44 x13 * x38
   - 96 x13 * x39 + 52 x13 * x40 - 4 x13 * x41 + 16 x13 * x42
   + 36 x13 * x43 + 40 x13 * x45 + 28 x13 * x46 + 78 x13 * x47
   - 30 x13 * x49 + 70 x13 * x51 + 28 x13 * x52 - 66 x13 * x55
   + 66 x13 * x56 + 32 x13 * x57 - 74 x13 * x58 - 74 x13 * x60
   + 86 x13 * x61 - 20 x13 * x62 + 40 x13 * x63 - 34 x13 * x64
   + 34 x13 * x66 + 86 x13 * x69 - 14 x13 * x71 + 60 x13 * x72
   + 34 x13 * x73 + 26 x13 * x74 + 20 x13 * x77 + 26 x13 * x79 + 39 x14 ^2
   + 98 x14 * x15 + 8 x14 * x17 - 84 x14 * x19 + 74 x14 * x20
   - 12 x14 * x21 + 96 x14 * x22 + 8 x14 * x23 + 18 x14 * x24
   - 52 x14 * x25 + 24 x14 * x26 + 14 x14 * x27 + 22 x14 * x28
   + 54 x14 * x29 - 42 x14 * x30 + 20 x14 * x33 + 74 x14 * x34
   + 54 x14 * x35 - 48 x14 * x36 + 8 x14 * x37 + 78 x14 * x38
   + 50 x14 * x40 + 54 x14 * x41 + 60 x14 * x42 + 80 x14 * x43
   + 46 x14 * x45 + 76 x14 * x46 - 98 x14 * x47 - 50 x14 * x48
   + 2 x14 * x49 - 64 x14 * x50 - 18 x14 * x51 - 72 x14 * x52
   - 34 x14 * x53 + 18 x14 * x54 + 18 x14 * x55 - 14 x14 * x57
   + 16 x14 * x58 + 66 x14 * x59 + 72 x14 * x60 - 36 x14 * x61
   + 54 x14 * x62 - 32 x14 * x63 + 66 x14 * x64 + 34 x14 * x66
   - 76 x14 * x67 - 94 x14 * x68 - 14 x14 * x69 + 4 x14 * x72
   - 62 x14 * x73 + 22 x14 * x74 + 96 x14 * x75 - 42 x14 * x76
   - 58 x14 * x79 - 36 x15 ^2 - 26 x15 * x16 + 18 x15 * x17 - 58 x15 * x20
   + 20 x15 * x21 - 70 x15 * x23 + 6 x15 * x24 - 30 x15 * x25 + 6 x15 * x26
   + 84 x15 * x27 + 10 x15 * x28 + 62 x15 * x29 - 16 x15 * x30
   - 34 x15 * x32 + 40 x15 * x34 - 2 x15 * x35 + 20 x15 * x36
   + 84 x15 * x37 - 4 x15 * x39 + 8 x15 * x40 + 82 x15 * x41 + 20 x15 * x42
   + 76 x15 * x43 - 44 x15 * x44 - 88 x15 * x45 - 92 x15 * x46
   - 12 x15 * x47 + 6 x15 * x49 + 10 x15 * x50 - 42 x15 * x51
   - 22 x15 * x52 + 78 x15 * x53 - 72 x15 * x54 + 52 x15 * x55
   + 44 x15 * x59 + 14 x15 * x60 - 90 x15 * x61 + 94 x15 * x63
   - 82 x15 * x64 - 88 x15 * x66 + 66 x15 * x67 + 18 x15 * x68
   + 80 x15 * x70 + 60 x15 * x71 - 42 x15 * x72 - 38 x15 * x74
   - 24 x15 * x75 + 34 x15 * x76 - 24 x15 * x77 - 90 x15 * x78
   + 8 x15 * x79 + 76 x16 * x17 - 16 x16 * x21 - 56 x16 * x25
   + 70 x16 * x27 + 10 x16 * x28 + 70 x16 * x29 - 62 x16 * x30
   - 98 x16 * x31 + 54 x16 * x34 + 38 x16 * x43 + 10 x16 * x44
   + 24 x16 * x45 + 94 x16 * x46 - 60 x16 * x47 + 58 x16 * x48
   - 36 x16 * x49 - 54 x16 * x50 - 88 x16 * x51 + 2 x16 * x53
   + 46 x16 * x54 + 50 x16 * x56 + 68 x16 * x57 - 98 x16 * x58
   - 48 x16 * x59 - 44 x16 * x62 - 48 x16 * x64 - 94 x16 * x68
   + 60 x16 * x70 + 14 x16 * x71 + 82 x16 * x72 - 86 x16 * x73
   + 34 x16 * x74 + 8 x16 * x75 + 44 x16 * x76 - 92 x16 * x77
   + 84 x16 * x78 - 78 x16 * x79 - 28 x17 * x18 - 42 x17 * x19
   - 30 x17 * x20 + 16 x17 * x21 + 50 x17 * x22 - 62 x17 * x24
   - 80 x17 * x25 - 82 x17 * x28 + 64 x17 * x29 + 90 x17 * x30
   + 46 x17 * x32 - 76 x17 * x33 - 92 x17 * x34 - 46 x17 * x35
   - 8 x17 * x36 - 14 x17 * x37 + 10 x17 * x38 - 96 x17 * x39
   - 62 x17 * x40 - 52 x17 * x41 - 82 x17 * x42 + 44 x17 * x43
   + 20 x17 * x44 - 80 x17 * x47 - 84 x17 * x49 - 78 x17 * x50
   + 92 x17 * x51 - 40 x17 * x52 + 22 x17 * x53 - 76 x17 * x54
   - 38 x17 * x56 - 58 x17 * x57 - 98 x17 * x58 + 32 x17 * x59
   + 58 x17 * x61 - 50 x17 * x62 + 44 x17 * x63 + 94 x17 * x64
   - 36 x17 * x66 + 74 x17 * x68 + 32 x17 * x69 + 42 x17 * x70
   - 32 x17 * x72 - 54 x17 * x73 - 52 x17 * x74 + 44 x17 * x75
   - 76 x17 * x76 + 52 x17 * x78 + 52 x17 * x79 + 40 x18 * x19
   + 24 x18 * x21 + 64 x18 * x22 + 70 x18 * x23 + 36 x18 * x25
   + 86 x18 * x26 - 56 x18 * x29 - 8 x18 * x30 + 2 x18 * x31 - 94 x18 * x32
   + 86 x18 * x33 + 96 x18 * x35 + 96 x18 * x36 - 96 x18 * x37
   + 52 x18 * x38 - 56 x18 * x39 - 16 x18 * x40 - 2 x18 * x43
   + 24 x18 * x46 + 80 x18 * x47 - 42 x18 * x50 + 78 x18 * x52
   - 2 x18 * x55 + 4 x18 * x56 - 44 x18 * x58 + 78 x18 * x59 + 8 x18 * x60
   - 32 x18 * x61 - 68 x18 * x62 - 2 x18 * x64 - 84 x18 * x65
   + 14 x18 * x68 + 22 x18 * x69 - 4 x18 * x70 + 92 x18 * x71
   - 86 x18 * x72 - 24 x18 * x73 + 6 x18 * x74 + 8 x18 * x75 - 88 x18 * x76
   + 58 x18 * x77 - 16 x18 * x79 - 22 x19 ^2 - 48 x19 * x20 - 42 x19 * x21
   + 92 x19 * x23 + 98 x19 * x24 - 76 x19 * x25 + 92 x19 * x27
   + 80 x19 * x28 + 92 x19 * x29 + 28 x19 * x30 + 4 x19 * x31
   - 60 x19 * x32 + 80 x19 * x33 + 72 x19 * x34 + 74 x19 * x35
   - 42 x19 * x37 + 40 x19 * x38 + 20 x19 * x39 - 38 x19 * x42
   + 66 x19 * x43 + 48 x19 * x44 + 76 x19 * x45 + 40 x19 * x46
   + 64 x19 * x47 + 64 x19 * x48 - 40 x19 * x51 - 64 x19 * x52
   + 82 x19 * x53 + 6 x19 * x55 + 52 x19 * x56 + 6 x19 * x58 + 52 x19 * x59
   + 16 x19 * x60 + 46 x19 * x62 + 76 x19 * x63 + 30 x19 * x65
   + 16 x19 * x66 - 66 x19 * x68 - 18 x19 * x69 + 22 x19 * x70
   - 90 x19 * x71 + 62 x19 * x72 - 92 x19 * x73 + 16 x19 * x74
   - 8 x19 * x76 + 22 x19 * x77 + 82 x19 * x78 - 50 x19 * x79 + 36 x20 ^2
   - 96 x20 * x21 + 90 x20 * x22 - 58 x20 * x23 + 50 x20 * x24
   + 70 x20 * x25 - 60 x20 * x26 + 80 x20 * x27 - 26 x20 * x28
   - 20 x20 * x29 - 14 x20 * x32 - 18 x20 * x33 - 70 x20 * x34
   + 82 x20 * x35 - 46 x20 * x36 + 94 x20 * x37 - 48 x20 * x38
   - 30 x20 * x39 + 98 x20 * x40 - 12 x20 * x41 + 2 x20 * x42
   + 94 x20 * x43 + 76 x20 * x44 + 16 x20 * x45 - 6 x20 * x46
   - 70 x20 * x47 - 96 x20 * x48 - 12 x20 * x49 + 48 x20 * x50
   - 6 x20 * x51 - 54 x20 * x53 - 52 x20 * x54 + 28 x20 * x55
   + 44 x20 * x56 - 54 x20 * x57 - 28 x20 * x58 + 30 x20 * x59
   - 42 x20 * x60 - 90 x20 * x61 - 2 x20 * x62 + 40 x20 * x63
   - 80 x20 * x64 - 76 x20 * x65 + 40 x20 * x67 + 32 x20 * x71
   + 62 x20 * x72 + 98 x20 * x74 - 80 x20 * x76 + 50 x20 * x78
   - 30 x20 * x79 - 36 x21 * x22 - 82 x21 * x23 + 46 x21 * x25
   + 40 x21 * x26 - 14 x21 * x28 - 80 x21 * x29 + 60 x21 * x30
   - 68 x21 * x31 - 40 x21 * x32 - 66 x21 * x33 - 58 x21 * x34
   + 40 x21 * x35 - 86 x21 * x36 + 88 x21 * x38 - 76 x21 * x40
   - 74 x21 * x41 - 82 x21 * x42 + 42 x21 * x43 + 34 x21 * x44
   - 38 x21 * x45 + 78 x21 * x46 + 42 x21 * x47 - 60 x21 * x48
   - 52 x21 * x49 - 60 x21 * x50 - 50 x21 * x51 + 6 x21 * x52
   - 30 x21 * x53 + 94 x21 * x54 - 28 x21 * x55 + 72 x21 * x57
   + 14 x21 * x58 + 22 x21 * x61 + 84 x21 * x62 + 30 x21 * x63
   + 60 x21 * x65 - 90 x21 * x66 - 84 x21 * x67 + 16 x21 * x68
   - 32 x21 * x69 - 84 x21 * x70 + 54 x21 * x71 + 84 x21 * x73
   + 82 x21 * x74 + 36 x21 * x75 - 90 x21 * x79 - 56 x22 * x23
   + 28 x22 * x25 - 10 x22 * x26 + 58 x22 * x27 - 22 x22 * x28
   - 38 x22 * x29 + 12 x22 * x30 - 34 x22 * x31 - 70 x22 * x32
   - 44 x22 * x33 + 36 x22 * x35 - 22 x22 * x36 - 80 x22 * x37
   + 86 x22 * x38 - 76 x22 * x39 - 48 x22 * x40 - 66 x22 * x41
   - 54 x22 * x43 + 2 x22 * x44 + 6 x22 * x45 + 44 x22 * x46 + 70 x22 * x47
   - 54 x22 * x48 - 40 x22 * x49 + 16 x22 * x50 + 70 x22 * x51
   + 58 x22 * x53 - 18 x22 * x54 + 38 x22 * x56 + 56 x22 * x58
   + 50 x22 * x60 - 6 x22 * x61 + 50 x22 * x62 - 68 x22 * x63
   - 18 x22 * x65 - 80 x22 * x66 - 14 x22 * x68 + 56 x22 * x69
   + 20 x22 * x70 + 8 x22 * x71 - 22 x22 * x72 + 38 x22 * x73 + 8 x22 * x75
   - 70 x22 * x76 + 80 x22 * x77 - 46 x22 * x79 + 32 x23 ^2 - 80 x23 * x24
   + 26 x23 * x27 + 54 x23 * x28 + 94 x23 * x30 + 8 x23 * x31
   - 78 x23 * x32 + 58 x23 * x35 - 58 x23 * x36 - 88 x23 * x37
   + 76 x23 * x38 - 6 x23 * x39 + 26 x23 * x40 + 50 x23 * x41
   + 28 x23 * x42 + 28 x23 * x43 - 96 x23 * x44 - 8 x23 * x45
   + 66 x23 * x46 - 90 x23 * x47 + 98 x23 * x48 + 56 x23 * x50
   - 92 x23 * x52 + 58 x23 * x54 - 58 x23 * x56 + 92 x23 * x60
   + 66 x23 * x61 - 54 x23 * x62 + 74 x23 * x63 + 54 x23 * x64
   - 46 x23 * x65 - 50 x23 * x66 + 86 x23 * x69 - 84 x23 * x70
   - 90 x23 * x71 - 62 x23 * x72 - 30 x23 * x73 + 98 x23 * x74
   + 24 x23 * x75 - 28 x23 * x76 + 84 x23 * x78 - 72 x23 * x79 - 29 x24 ^2
   - 42 x24 * x25 + 44 x24 * x27 + 98 x24 * x28 - 42 x24 * x29
   + 30 x24 * x30 - 10 x24 * x31 - 76 x24 * x32 - 4 x24 * x34
   - 48 x24 * x35 - 44 x24 * x38 - 86 x24 * x39 - 90 x24 * x40
   + 28 x24 * x41 + 68 x24 * x42 - 34 x24 * x43 + 34 x24 * x44
   + 72 x24 * x45 + 82 x24 * x46 + 42 x24 * x47 + 92 x24 * x48
   - 10 x24 * x49 - 66 x24 * x50 - 98 x24 * x51 + 10 x24 * x52
   - 76 x24 * x54 - 78 x24 * x57 + 74 x24 * x59 + 20 x24 * x60
   + 40 x24 * x62 - 62 x24 * x64 + 52 x24 * x65 + 16 x24 * x66
   - 90 x24 * x67 - 34 x24 * x69 + 18 x24 * x70 - 38 x24 * x71
   + 46 x24 * x72 + 12 x24 * x73 + 16 x24 * x74 - 82 x24 * x75
   - 36 x24 * x76 + 56 x24 * x77 - 46 x24 * x78 - 30 x24 * x79 - 3 x25 ^2
   + 48 x25 * x26 - 66 x25 * x27 - 92 x25 * x30 - 56 x25 * x31
   + 72 x25 * x33 - 16 x25 * x34 - 58 x25 * x36 + 74 x25 * x38
   - 88 x25 * x39 + 36 x25 * x40 - 36 x25 * x41 + 46 x25 * x42
   - 2 x25 * x44 + 18 x25 * x45 - 88 x25 * x46 + 22 x25 * x47 - 6 x25 * x48
   - 78 x25 * x52 - 14 x25 * x53 + 54 x25 * x54 + 6 x25 * x55
   - 84 x25 * x56 + 80 x25 * x57 + 30 x25 * x58 - 68 x25 * x60
   - 78 x25 * x61 + 68 x25 * x62 - 88 x25 * x66 + 64 x25 * x67
   - 62 x25 * x70 - 40 x25 * x72 + 90 x25 * x73 - 40 x25 * x74
   + 72 x25 * x75 + 98 x25 * x76 - 68 x25 * x77 - 82 x25 * x79
   + 62 x26 * x27 - 80 x26 * x28 - 82 x26 * x29 - 14 x26 * x30
   - 36 x26 * x31 - 22 x26 * x33 + 20 x26 * x34 - 88 x26 * x36
   - 66 x26 * x37 - 76 x26 * x40 + 56 x26 * x41 + 38 x26 * x42
   - 56 x26 * x43 + 94 x26 * x44 - 68 x26 * x45 - 20 x26 * x47
   + 36 x26 * x48 - 38 x26 * x49 + 92 x26 * x50 - 20 x26 * x51
   - 12 x26 * x52 + 20 x26 * x53 - 28 x26 * x54 - 84 x26 * x55
   + 62 x26 * x56 + 12 x26 * x61 - 54 x26 * x63 - 72 x26 * x64
   + 54 x26 * x65 + 74 x26 * x66 + 46 x26 * x68 + 26 x26 * x70
   - 92 x26 * x71 - 56 x26 * x72 + 10 x26 * x73 - 82 x26 * x75
   - 32 x26 * x76 + 8 x26 * x77 - 98 x26 * x78 - 10 x26 * x79 - 26 x27 ^2
   - 78 x27 * x28 + 74 x27 * x29 + 16 x27 * x31 - 44 x27 * x32
   + 30 x27 * x33 - 66 x27 * x34 - 76 x27 * x35 + 78 x27 * x36
   + 88 x27 * x37 - 42 x27 * x38 + 24 x27 * x39 + 2 x27 * x41
   + 24 x27 * x42 - 72 x27 * x43 - 6 x27 * x44 + 72 x27 * x45
   - 52 x27 * x46 + 30 x27 * x47 + 20 x27 * x48 - 62 x27 * x49
   - 86 x27 * x50 + 90 x27 * x51 - 36 x27 * x53 + 12 x27 * x54
   - 30 x27 * x56 + 66 x27 * x57 + 14 x27 * x59 - 28 x27 * x63
   - 20 x27 * x65 + 98 x27 * x66 + 68 x27 * x67 - 92 x27 * x68
   - 10 x27 * x70 + 80 x27 * x71 - 94 x27 * x74 - 18 x27 * x75
   + 50 x27 * x76 + 90 x27 * x77 + 38 x27 * x78 + 30 x27 * x79 + 16 x28 ^2
   - 54 x28 * x29 + 74 x28 * x30 + 30 x28 * x32 - 26 x28 * x33
   + 44 x28 * x34 + 98 x28 * x35 - 88 x28 * x36 - 30 x28 * x38
   - 34 x28 * x40 + 10 x28 * x41 - 94 x28 * x42 + 68 x28 * x44
   - 90 x28 * x47 - 88 x28 * x48 - 54 x28 * x49 - 4 x28 * x50
   - 18 x28 * x52 - 60 x28 * x55 + 72 x28 * x56 + 54 x28 * x57
   + 70 x28 * x58 + 18 x28 * x59 - 8 x28 * x60 + 2 x28 * x61 + 82 x28 * x62
   + 40 x28 * x64 - 14 x28 * x66 - 58 x28 * x70 + 92 x28 * x71
   + 54 x28 * x74 - 62 x28 * x75 - 70 x28 * x76 - 56 x28 * x77
   - 52 x28 * x78 - 24 x28 * x79 + 35 x29 ^2 - 50 x29 * x30 + 84 x29 * x31
   + 6 x29 * x35 + 32 x29 * x36 - 72 x29 * x37 - 58 x29 * x38
   + 80 x29 * x39 + 60 x29 * x40 - 56 x29 * x41 + 38 x29 * x42
   + 84 x29 * x43 + 18 x29 * x44 - 14 x29 * x45 + 18 x29 * x46
   - 76 x29 * x47 - 76 x29 * x49 + 62 x29 * x50 + 26 x29 * x51
   + 82 x29 * x52 + 26 x29 * x53 + 10 x29 * x54 + 68 x29 * x56
   - 72 x29 * x57 + 18 x29 * x58 - 36 x29 * x59 + 14 x29 * x60
   + 76 x29 * x61 - 86 x29 * x63 + 48 x29 * x64 + 86 x29 * x66
   - 64 x29 * x68 - 82 x29 * x70 + 12 x29 * x72 - 74 x29 * x74
   + 92 x29 * x75 - 42 x29 * x77 - 40 x29 * x79 + 72 x30 * x31
   + 90 x30 * x32 - 44 x30 * x35 - 48 x30 * x36 + 94 x30 * x37
   - 60 x30 * x40 - 30 x30 * x41 - 10 x30 * x42 + 34 x30 * x44
   - 62 x30 * x47 + 80 x30 * x48 + 34 x30 * x49 - 10 x30 * x50
   + 96 x30 * x54 + 62 x30 * x56 - 76 x30 * x57 + 76 x30 * x58
   - 48 x30 * x59 + 14 x30 * x60 - 94 x30 * x61 - 22 x30 * x63
   - 18 x30 * x65 - 14 x30 * x66 - 8 x30 * x67 + 40 x30 * x68
   + 56 x30 * x69 - 84 x30 * x71 - 76 x30 * x72 - 18 x30 * x73
   - 40 x30 * x75 - 86 x30 * x76 + 56 x30 * x77 - 20 x30 * x78
   + 68 x30 * x79 - 92 x31 * x32 + 36 x31 * x33 + 30 x31 * x34
   - 42 x31 * x35 + 48 x31 * x36 - 90 x31 * x37 - 80 x31 * x38
   - 36 x31 * x39 - 62 x31 * x40 - 34 x31 * x41 - 6 x31 * x42
   + 54 x31 * x43 - 92 x31 * x44 + 6 x31 * x45 - 46 x31 * x46
   + 42 x31 * x47 + 72 x31 * x48 + 56 x31 * x51 - 52 x31 * x52
   - 72 x31 * x53 + 88 x31 * x54 - 38 x31 * x55 - 24 x31 * x56
   + 12 x31 * x59 + 54 x31 * x60 - 30 x31 * x61 - 92 x31 * x62
   - 22 x31 * x63 + 58 x31 * x67 + 8 x31 * x70 + 36 x31 * x71
   + 94 x31 * x72 - 86 x31 * x75 + 20 x31 * x76 - 68 x31 * x78
   + 92 x31 * x79 + 5 x32 ^2 + 36 x32 * x33 - 24 x32 * x34 + 72 x32 * x35
   - 90 x32 * x36 - 22 x32 * x37 - 26 x32 * x39 - 34 x32 * x40
   - 46 x32 * x42 - 4 x32 * x43 + 46 x32 * x44 + 56 x32 * x45
   + 40 x32 * x47 + 86 x32 * x51 + 50 x32 * x52 + 20 x32 * x54
   + 46 x32 * x56 - 40 x32 * x57 + 48 x32 * x58 - 92 x32 * x59
   - 98 x32 * x62 + 46 x32 * x63 + 30 x32 * x65 - 36 x32 * x69
   - 16 x32 * x70 + 98 x32 * x71 - 70 x32 * x73 + 66 x32 * x74
   + 74 x32 * x76 + 76 x32 * x77 + 72 x32 * x79 - 31 x33 ^2 - 86 x33 * x34
   + 34 x33 * x37 + 56 x33 * x38 - 80 x33 * x40 + 94 x33 * x41
   + 48 x33 * x43 + 16 x33 * x45 + 68 x33 * x46 + 36 x33 * x47
   + 60 x33 * x49 + 4 x33 * x51 + 62 x33 * x52 - 46 x33 * x53
   - 44 x33 * x54 + 84 x33 * x61 + 26 x33 * x63 - 40 x33 * x64
   + 90 x33 * x65 + 54 x33 * x67 - 74 x33 * x69 + 54 x33 * x71
   - 72 x33 * x72 - 38 x33 * x73 - 28 x33 * x74 - 84 x33 * x75
   - 40 x33 * x76 - 60 x33 * x77 - 84 x33 * x78 + 68 x33 * x79
   + 44 x34 * x36 - 82 x34 * x37 - 70 x34 * x38 + 44 x34 * x40
   + 90 x34 * x41 - 92 x34 * x44 - 14 x34 * x46 - 10 x34 * x47
   - 68 x34 * x49 - 74 x34 * x50 + 72 x34 * x51 + 74 x34 * x52
   + 20 x34 * x53 - 58 x34 * x55 + 68 x34 * x56 - 38 x34 * x57
   + 96 x34 * x58 + 22 x34 * x59 - 90 x34 * x61 + 50 x34 * x62
   + 16 x34 * x63 + 82 x34 * x65 + 36 x34 * x66 - 82 x34 * x67
   - 24 x34 * x68 + 52 x34 * x69 - 30 x34 * x71 + 52 x34 * x72
   - 80 x34 * x74 + 22 x34 * x75 - 38 x34 * x76 + 78 x34 * x77
   - 36 x34 * x78 + 34 x35 * x37 + 26 x35 * x39 + 44 x35 * x40
   + 78 x35 * x42 - 64 x35 * x43 - 28 x35 * x45 - 84 x35 * x47
   + 24 x35 * x48 + 24 x35 * x49 - 20 x35 * x51 - 26 x35 * x53
   + 70 x35 * x54 + 52 x35 * x55 + 46 x35 * x57 - 80 x35 * x58
   + 46 x35 * x59 - 82 x35 * x60 + 82 x35 * x61 + 62 x35 * x62
   + 82 x35 * x63 + 8 x35 * x64 - 86 x35 * x66 - 50 x35 * x67 - 2 x35 * x68
   + 70 x35 * x71 + 80 x35 * x72 - 52 x35 * x76 - 46 x35 * x78
   + 86 x35 * x79 - 44 x36 ^2 - 12 x36 * x39 + 98 x36 * x40 - 30 x36 * x41
   + 48 x36 * x42 + 48 x36 * x43 - 18 x36 * x44 - 70 x36 * x45
   + 34 x36 * x46 + 86 x36 * x47 + 74 x36 * x48 + 28 x36 * x49
   + 70 x36 * x51 - 4 x36 * x52 - 52 x36 * x53 + 4 x36 * x54 - 22 x36 * x55
   - 86 x36 * x58 + 78 x36 * x59 - 58 x36 * x60 - 30 x36 * x61
   - 48 x36 * x62 + 54 x36 * x63 - 52 x36 * x66 - 60 x36 * x67
   - 26 x36 * x69 - 80 x36 * x70 - 30 x36 * x71 + 20 x36 * x73
   + 50 x36 * x74 - 24 x36 * x76 - 96 x36 * x78 + 54 x36 * x79 - 7 x37 ^2
   + 2 x37 * x38 - 88 x37 * x39 - 72 x37 * x42 + 96 x37 * x43
   + 50 x37 * x44 - 56 x37 * x45 - 18 x37 * x46 + 14 x37 * x47
   - 80 x37 * x50 - 86 x37 * x51 + 72 x37 * x53 - 72 x37 * x54
   + 4 x37 * x57 - 60 x37 * x58 - 80 x37 * x59 - 98 x37 * x60
   + 64 x37 * x61 + 84 x37 * x62 + 92 x37 * x63 + 70 x37 * x64
   - 46 x37 * x65 + 46 x37 * x66 - 54 x37 * x67 - 76 x37 * x68
   + 6 x37 * x69 - 52 x37 * x70 - 60 x37 * x71 + 50 x37 * x72
   + 34 x37 * x73 + 94 x37 * x74 - 44 x37 * x75 - 34 x37 * x76
   + 44 x37 * x77 - 26 x37 * x78 + 50 x37 * x79 + 2 x38 ^2 + 46 x38 * x39
   - 74 x38 * x40 - 22 x38 * x41 - 92 x38 * x43 + 40 x38 * x44
   - 78 x38 * x45 - 26 x38 * x46 + 52 x38 * x47 + 58 x38 * x49
   + 4 x38 * x50 + 14 x38 * x51 - 78 x38 * x52 - 72 x38 * x53
   + 68 x38 * x54 - 8 x38 * x55 + 88 x38 * x56 + 14 x38 * x57
   + 72 x38 * x58 - 80 x38 * x59 + 92 x38 * x60 + 56 x38 * x61
   + 76 x38 * x63 + 88 x38 * x65 + 42 x38 * x66 + 28 x38 * x67
   + 96 x38 * x68 + 42 x38 * x69 + 58 x38 * x70 + 30 x38 * x71
   - 58 x38 * x73 + 92 x38 * x74 + 62 x38 * x75 + 50 x38 * x76
   + 96 x38 * x77 + 78 x38 * x79 - 78 x39 * x41 - 64 x39 * x43
   + 84 x39 * x44 - 96 x39 * x45 - 82 x39 * x47 - 34 x39 * x48
   + 34 x39 * x49 - 68 x39 * x50 + 92 x39 * x51 + 68 x39 * x52
   - 2 x39 * x53 - 70 x39 * x54 - 54 x39 * x55 + 92 x39 * x57
   - 78 x39 * x58 + 16 x39 * x59 + 54 x39 * x61 + 34 x39 * x62
   + 24 x39 * x63 + 16 x39 * x64 - 4 x39 * x65 - 6 x39 * x67 - 54 x39 * x68
   - 90 x39 * x69 - 92 x39 * x71 - 64 x39 * x72 + 36 x39 * x73
   - 24 x39 * x74 - 38 x39 * x76 + 28 x39 * x77 - 10 x40 ^2 - 50 x40 * x41
   - 58 x40 * x42 - 84 x40 * x43 - 34 x40 * x45 + 8 x40 * x46 + 8 x40 * x47
   + 26 x40 * x48 - 50 x40 * x49 + 36 x40 * x50 - 56 x40 * x51
   - 4 x40 * x53 - 24 x40 * x54 - 60 x40 * x58 - 90 x40 * x61
   - 12 x40 * x63 - 66 x40 * x64 - 4 x40 * x65 + 32 x40 * x67
   + 36 x40 * x68 + 64 x40 * x70 - 64 x40 * x71 - 36 x40 * x72
   + 14 x40 * x73 + 98 x40 * x74 - 10 x40 * x76 - 76 x40 * x77
   + 92 x40 * x78 - 20 x40 * x79 - 16 x41 ^2 + 2 x41 * x42 - 66 x41 * x43
   - 56 x41 * x45 + 78 x41 * x46 + 94 x41 * x47 - 4 x41 * x48
   + 68 x41 * x51 + 10 x41 * x52 + 58 x41 * x55 + 70 x41 * x57
   - 52 x41 * x58 + 16 x41 * x60 - 44 x41 * x62 + 24 x41 * x63
   + 26 x41 * x64 + 56 x41 * x66 + 50 x41 * x67 - 74 x41 * x68
   - 74 x41 * x70 - 30 x41 * x71 + 32 x41 * x73 + 38 x41 * x74
   - 98 x41 * x75 + 98 x41 * x76 + 88 x41 * x78 - 88 x41 * x79 - 45 x42 ^2
   - 8 x42 * x43 + 60 x42 * x44 + 74 x42 * x45 + 6 x42 * x46 + 74 x42 * x48
   - 76 x42 * x49 + 4 x42 * x50 - 92 x42 * x51 - 48 x42 * x54
   - 86 x42 * x56 + 46 x42 * x57 + 26 x42 * x58 + 32 x42 * x59
   + 82 x42 * x60 + 38 x42 * x62 - 46 x42 * x63 + 38 x42 * x64
   + 26 x42 * x65 + 92 x42 * x67 + 42 x42 * x68 + 68 x42 * x69
   + 2 x42 * x70 + 88 x42 * x71 + 20 x42 * x72 + 6 x42 * x73 - 6 x42 * x74
   + 40 x42 * x75 + 24 x42 * x76 - 72 x42 * x77 + 47 x43 ^2 + 24 x43 * x44
   - 46 x43 * x45 - 34 x43 * x47 + 22 x43 * x48 + 20 x43 * x49
   - 80 x43 * x50 - 6 x43 * x51 - 40 x43 * x52 + 94 x43 * x53
   + 92 x43 * x54 + 20 x43 * x55 + 66 x43 * x56 - 64 x43 * x58
   - 52 x43 * x61 + 62 x43 * x62 + 72 x43 * x65 + 98 x43 * x67
   + 20 x43 * x68 + 90 x43 * x69 + 92 x43 * x70 + 98 x43 * x72
   + 20 x43 * x75 - 70 x43 * x76 - 6 x43 * x78 - 12 x43 * x79 - 5 x44 ^2
   - 30 x44 * x45 + 22 x44 * x46 - 82 x44 * x48 - 84 x44 * x49
   + 60 x44 * x50 + 16 x44 * x52 - 4 x44 * x53 + 40 x44 * x55
   - 24 x44 * x57 + 54 x44 * x58 + 80 x44 * x59 + 2 x44 * x60
   + 86 x44 * x61 + 30 x44 * x62 + 8 x44 * x65 - 6 x44 * x66 - 18 x44 * x67
   + 42 x44 * x68 - 66 x44 * x70 - 56 x44 * x71 + 68 x44 * x74
   - 56 x44 * x75 + 62 x44 * x76 + 74 x44 * x77 + 6 x44 * x79
   + 24 x45 * x46 - 50 x45 * x48 - 20 x45 * x50 + 20 x45 * x51
   + 92 x45 * x52 - 10 x45 * x54 + 76 x45 * x55 - 88 x45 * x58
   + 58 x45 * x59 - 42 x45 * x60 + 92 x45 * x61 - 4 x45 * x62
   + 92 x45 * x64 - 88 x45 * x65 + 42 x45 * x66 + 58 x45 * x67
   + 54 x45 * x68 - 60 x45 * x70 + 78 x45 * x71 + 34 x45 * x73
   - 14 x45 * x74 - 80 x45 * x77 + 70 x45 * x78 + 21 x46 ^2 + 12 x46 * x47
   - 72 x46 * x48 + 36 x46 * x49 + 16 x46 * x50 + 88 x46 * x51
   - 6 x46 * x52 + 60 x46 * x56 - 26 x46 * x57 + 58 x46 * x58
   + 20 x46 * x59 - 32 x46 * x60 - 96 x46 * x61 - 10 x46 * x65
   + 6 x46 * x66 - 4 x46 * x68 - 50 x46 * x70 + 12 x46 * x71 - 56 x46 * x72
   + 4 x46 * x74 - 22 x46 * x75 - 48 x46 * x77 + 64 x46 * x78
   - 74 x46 * x79 - 42 x47 ^2 - 82 x47 * x48 + 18 x47 * x49 + 46 x47 * x50
   + 72 x47 * x51 - 80 x47 * x52 + 4 x47 * x53 - 42 x47 * x57
   - 56 x47 * x58 - 2 x47 * x60 + 88 x47 * x61 - 70 x47 * x63
   + 80 x47 * x64 - 72 x47 * x65 - 80 x47 * x66 - 4 x47 * x67
   + 76 x47 * x68 + 90 x47 * x70 - 66 x47 * x71 + 30 x47 * x72
   + 44 x47 * x73 - 18 x47 * x74 - 2 x47 * x76 + 8 x47 * x77 - 32 x48 ^2
   + 26 x48 * x50 + 20 x48 * x51 - 90 x48 * x52 - 20 x48 * x53
   - 70 x48 * x54 + 72 x48 * x56 + 78 x48 * x57 + 86 x48 * x58
   + 96 x48 * x59 - 26 x48 * x60 - 56 x48 * x61 + 76 x48 * x62
   - 88 x48 * x66 + 62 x48 * x67 - 52 x48 * x68 - 48 x48 * x69
   + 46 x48 * x71 - 12 x48 * x73 + 44 x48 * x74 + 76 x48 * x75
   + 10 x48 * x77 - 38 x48 * x78 + 42 x48 * x79 + 40 x49 * x51
   - 64 x49 * x52 - 18 x49 * x53 - 68 x49 * x54 - 66 x49 * x55
   - 80 x49 * x56 + 10 x49 * x57 - 52 x49 * x61 + 66 x49 * x62
   + 78 x49 * x63 - 34 x49 * x64 - 28 x49 * x65 + 44 x49 * x66
   - 2 x49 * x67 + 42 x49 * x68 - 82 x49 * x69 - 36 x49 * x70
   - 28 x49 * x72 + 52 x49 * x74 + 14 x49 * x76 - 50 x49 * x77
   + 56 x50 * x53 + 28 x50 * x54 + 96 x50 * x56 + 68 x50 * x57
   + 4 x50 * x58 - 78 x50 * x59 + 22 x50 * x60 + 14 x50 * x61 + 4 x50 * x62
   - 80 x50 * x64 + 6 x50 * x65 + 40 x50 * x67 + 18 x50 * x68
   - 26 x50 * x70 - 96 x50 * x71 + 86 x50 * x72 - 68 x50 * x74
   - 76 x50 * x75 - 90 x50 * x78 + 88 x50 * x79 + 6 x51 * x53
   - 52 x51 * x54 - 6 x51 * x55 - 36 x51 * x56 + 94 x51 * x57
   - 90 x51 * x61 + 86 x51 * x62 - 54 x51 * x64 - 60 x51 * x65
   - 64 x51 * x67 + 72 x51 * x68 + 8 x51 * x69 - 80 x51 * x72
   - 12 x51 * x73 + 18 x51 * x75 - 14 x51 * x76 - 74 x51 * x79
   + 56 x52 * x53 + 68 x52 * x54 + 28 x52 * x56 - 40 x52 * x57
   - 12 x52 * x58 - 32 x52 * x59 - 52 x52 * x60 + 70 x52 * x61
   + 42 x52 * x62 + 40 x52 * x65 + 94 x52 * x66 + 92 x52 * x67
   - 12 x52 * x68 - 38 x52 * x69 - 66 x52 * x70 + 70 x52 * x71
   + 66 x52 * x72 - 22 x52 * x73 + 48 x52 * x74 + 54 x52 * x75
   - 84 x52 * x77 + 80 x52 * x79 + 6 x53 ^2 - 78 x53 * x54 - 70 x53 * x57
   - 38 x53 * x58 + 18 x53 * x60 - 68 x53 * x61 - 52 x53 * x63
   + 50 x53 * x64 - 36 x53 * x66 - 64 x53 * x67 + 52 x53 * x68
   - 34 x53 * x69 - 58 x53 * x71 - 28 x53 * x72 + 42 x53 * x73
   + 18 x53 * x74 + 96 x53 * x75 - 56 x53 * x76 + 74 x53 * x78
   - 18 x53 * x79 - 34 x54 ^2 + 90 x54 * x55 - 48 x54 * x56 - 76 x54 * x57
   - 48 x54 * x59 + 44 x54 * x60 - 72 x54 * x62 - 16 x54 * x63
   + 10 x54 * x64 + 28 x54 * x65 + 62 x54 * x66 - 64 x54 * x67
   + 18 x54 * x68 + 34 x54 * x69 + 84 x54 * x70 + 32 x54 * x71
   - 26 x54 * x73 - 48 x54 * x74 - 4 x54 * x76 + 84 x54 * x77
   - 16 x54 * x78 - 35 x55 ^2 + 80 x55 * x57 + 64 x55 * x58 + 12 x55 * x60
   - 44 x55 * x61 + 92 x55 * x62 + 54 x55 * x63 - 86 x55 * x66
   - 28 x55 * x68 + 72 x55 * x69 + 52 x55 * x70 + 20 x55 * x71
   - 20 x55 * x72 - 12 x55 * x76 + 60 x55 * x77 - 28 x55 * x78
   + 18 x55 * x79 - 16 x56 ^2 - 18 x56 * x57 + 6 x56 * x58 + 60 x56 * x59
   + 78 x56 * x60 - 82 x56 * x62 + 62 x56 * x63 + 14 x56 * x65
   + 32 x56 * x66 - 70 x56 * x67 - 88 x56 * x68 - 98 x56 * x69
   - 62 x56 * x70 + 82 x56 * x73 + 36 x56 * x74 - 48 x56 * x75
   + 72 x56 * x76 - 52 x56 * x77 - 84 x56 * x79 - 64 x57 * x58
   + 68 x57 * x59 - 34 x57 * x60 - 76 x57 * x61 + 2 x57 * x63
   + 70 x57 * x65 + 44 x57 * x66 + 72 x57 * x68 + 70 x57 * x70
   - 40 x57 * x71 - 12 x57 * x72 - 46 x57 * x73 + 26 x57 * x74
   - 52 x57 * x75 + 12 x57 * x76 - 68 x57 * x77 - 72 x57 * x78
   - 50 x57 * x79 - 5 x58 ^2 - 46 x58 * x59 - 88 x58 * x60 + 38 x58 * x61
   + 92 x58 * x62 - 20 x58 * x64 - 34 x58 * x65 + 6 x58 * x66
   + 80 x58 * x67 - 34 x58 * x68 - 88 x58 * x75 - 26 x58 * x76
   + 22 x58 * x77 + 76 x58 * x79 - 7 x59 ^2 + 24 x59 * x60 + 8 x59 * x61
   - 42 x59 * x62 + 92 x59 * x63 - 42 x59 * x65 - 90 x59 * x66
   - 76 x59 * x67 + 32 x59 * x68 - 8 x59 * x69 + 26 x59 * x70
   + 50 x59 * x71 + 60 x59 * x72 + 2 x59 * x73 + 94 x59 * x74
   + 86 x59 * x75 - 64 x59 * x76 - 74 x59 * x77 + 8 x60 ^2 - 2 x60 * x62
   - 56 x60 * x63 + 28 x60 * x64 + 74 x60 * x67 - 36 x60 * x68
   + 44 x60 * x69 - 46 x60 * x70 - 10 x60 * x72 - 10 x60 * x74
   - 16 x60 * x76 - 26 x60 * x77 - 90 x60 * x78 + 66 x60 * x79
   - 88 x61 * x62 - 36 x61 * x63 + 86 x61 * x64 - 24 x61 * x66
   + 54 x61 * x67 + 32 x61 * x68 + 60 x61 * x69 + 62 x61 * x72
   + 32 x61 * x73 - 92 x61 * x76 + 16 x61 * x78 - 44 x61 * x79
   + 14 x62 * x63 + 18 x62 * x64 + 88 x62 * x66 - 62 x62 * x67
   + 28 x62 * x68 - 24 x62 * x69 + 62 x62 * x71 + 32 x62 * x72
   + 68 x62 * x74 - 44 x62 * x75 + 62 x62 * x76 - 66 x62 * x78 - 31 x63 ^2
   - 60 x63 * x65 + 34 x63 * x67 + 92 x63 * x69 - 80 x63 * x71
   + 66 x63 * x72 - 74 x63 * x73 + 82 x63 * x74 + 82 x63 * x75
   - 50 x63 * x76 + 44 x63 * x77 - 64 x63 * x78 + 40 x64 ^2 + 92 x64 * x65
   + 88 x64 * x67 - 88 x64 * x68 + 58 x64 * x69 - 78 x64 * x70
   - 10 x64 * x71 + 36 x64 * x75 + 42 x64 * x76 - 36 x64 * x78
   + 68 x64 * x79 + 28 x65 ^2 + 26 x65 * x67 - 68 x65 * x68 + 24 x65 * x69
   - 20 x65 * x70 + 76 x65 * x71 + 78 x65 * x72 - 68 x65 * x73
   + 46 x65 * x75 + 8 x65 * x76 - 48 x65 * x77 - 78 x65 * x78
   - 46 x65 * x79 - 36 x66 ^2 - 92 x66 * x67 - 72 x66 * x68 - 54 x66 * x69
   - 22 x66 * x70 + 30 x66 * x71 + 56 x66 * x73 + 52 x66 * x75
   - 4 x66 * x76 + 6 x66 * x78 - 94 x67 * x68 - 96 x67 * x69 + 12 x67 * x70
   + 82 x67 * x72 - 64 x67 * x73 - 14 x67 * x74 - 66 x67 * x75
   - 74 x67 * x76 + 86 x67 * x77 - 52 x67 * x78 + 42 x68 * x69
   - 74 x68 * x70 + 38 x68 * x71 + 34 x68 * x72 + 44 x68 * x73
   - 76 x68 * x75 - 58 x68 * x77 - 48 x68 * x78 + 25 x69 ^2 - 84 x69 * x70
   - 54 x69 * x71 + 6 x69 * x72 + 46 x69 * x73 - 52 x69 * x74
   - 70 x69 * x75 - 60 x69 * x76 + 22 x69 * x77 - 76 x69 * x78
   - 80 x69 * x79 - 18 x70 ^2 + 42 x70 * x71 - 66 x70 * x73 - 12 x70 * x74
   + 64 x70 * x75 + 76 x70 * x77 + 84 x70 * x78 - 2 x70 * x79 - 32 x71 ^2
   - 72 x71 * x73 - 70 x71 * x75 + 84 x71 * x76 + 20 x71 * x78
   - 80 x72 * x73 - 66 x72 * x74 + 72 x72 * x75 + 38 x72 * x76
   + 20 x72 * x77 + 2 x72 * x78 - 40 x72 * x79 - 24 x73 ^2 - 70 x73 * x74
   + 72 x73 * x76 - 54 x73 * x77 + 24 x73 * x78 + 19 x74 ^2 + 62 x74 * x75
   + 66 x74 * x76 - 14 x74 * x78 + 52 x74 * x79 - 12 x75 ^2 - 98 x75 * x76
   + 14 x75 * x78 + 24 x76 ^2 + 34 x76 * x77 + 86 x76 * x78 + 30 x77 ^2
   - 72 x77 * x78 + 36 x77 * x79 - 35 x78 ^2 - 72 x78 * x79 + 36 x79 ^2
   ] / 2 
Subject To
Bounds
 x0 <= 1
 x1 <= 1
 x2 <= 1
 x3 <= 1
 x4 <= 1
 x5 <= 1
 x6 <= 1
 x7 <= 1
 x8 <= 1
 x9 <= 1
 x10 <= 1
 x11 <= 1
 x12 <= 1
 x13 <= 1
 x14 <= 1
 x15 <= 1
 x16 <= 1
 x17 <= 1
 x18 <= 1
 x19 <= 1
 x20 <= 1
 x21 <= 1
 x22 <= 1
 x23 <= 1
 x24 <= 1
 x25 <= 1
 x26 <= 1
 x27 <= 1
 x28 <= 1
 x29 <= 1
 x30 <= 1
 x31 <= 1
 x32 <= 1
 x33 <= 1
 x34 <= 1
 x35 <= 1
 x36 <= 1
 x37 <= 1
 x38 <= 1
 x39 <= 1
 x40 <= 1
 x41 <= 1
 x42 <= 1
 x43 <= 1
 x44 <= 1
 x45 <= 1
 x46 <= 1
 x47 <= 1
 x48 <= 1
 x49 <= 1
 x50 <= 1
 x51 <= 1
 x52 <= 1
 x53 <= 1
 x54 <= 1
 x55 <= 1
 x56 <= 1
 x57 <= 1
 x58 <= 1
 x59 <= 1
 x60 <= 1
 x61 <= 1
 x62 <= 1
 x63 <= 1
 x64 <= 1
 x65 <= 1
 x66 <= 1
 x67 <= 1
 x68 <= 1
 x69 <= 1
 x70 <= 1
 x71 <= 1
 x72 <= 1
 x73 <= 1
 x74 <= 1
 x75 <= 1
 x76 <= 1
 x77 <= 1
 x78 <= 1
 x79 <= 1
End
